1111100 AB
417 450 485 520 554 588 683 718 753 788 823 857 957 992 1027 1063
1111100 BA
433 466 501 536 570 664 699 734 769 804 839 938 973 1008 1043 1080
0000011 AB
417 450 485 520 554 588 683 718 753 788 823 857 957 992 1027 1063
0000011 BA
433 466 501 536 570 664 699 734 769 804 839 938 973 1008 1043 1080
